(set-info :source |printed by MathSAT|)
(declare-fun call__DRAGON_.ite55 () Int)
(declare-fun call__DRAGON_.ite6 () Int)
(declare-fun call__DRAGON_.g05 () Bool)
(declare-fun call__DRAGON_.ite3 () Int)
(declare-fun call__DRAGON_.shared () Int)
(declare-fun call__DRAGON_.exclusive () Int)
(declare-fun call__DRAGON_.flby () Int)
(declare-fun call__DRAGON_.ite45 () Int)
(declare-fun param_e06 () Bool)
(declare-fun call__DRAGON_.ite30 () Int)
(declare-fun call__DRAGON_.ite36 () Int)
(declare-fun call__DRAGON_.ite16 () Int)
(declare-fun call__DRAGON_.ite15 () Int)
(declare-fun call__DRAGON_.shared_dirty () Int)
(declare-fun env () Bool)
(declare-fun call__DRAGON_.ite12 () Int)
(declare-fun call__DRAGON_.ite19 () Int)
(declare-fun call__DRAGON_.erreur () Bool)
(declare-fun call__DRAGON_.ite57 () Int)
(declare-fun call__DRAGON_.g06 () Bool)
(declare-fun call__DRAGON_.ite4 () Int)
(declare-fun invalid () Int)
(declare-fun call__DRAGON_.flby3 () Int)
(declare-fun call__DRAGON_.flby4 () Int)
(declare-fun call__DRAGON_.ite59 () Int)
(declare-fun call__DRAGON_.g04 () Bool)
(declare-fun call__DRAGON_.ite8 () Int)
(declare-fun call__DRAGON_.ite56 () Int)
(declare-fun param_e03 () Bool)
(declare-fun call__DRAGON_.ite22 () Int)
(declare-fun call__DRAGON_.flby6 () Int)
(declare-fun call__DRAGON_.ite26 () Int)
(declare-fun call_excludes12.excludes () Bool)
(declare-fun call__DRAGON_.ite44 () Int)
(declare-fun call__DRAGON_.g02 () Bool)
(declare-fun call__DRAGON_.ite7 () Int)
(declare-fun param_e08 () Bool)
(declare-fun call__DRAGON_.ite53 () Int)
(declare-fun call__DRAGON_.ite5 () Int)
(declare-fun call__DRAGON_.ite17 () Int)
(declare-fun call__DRAGON_.ite38 () Int)
(declare-fun call__DRAGON_.ite46 () Int)
(declare-fun call_Sofar.Sofar () Bool)
(declare-fun call__DRAGON_.ite10 () Int)
(declare-fun call__DRAGON_.ite58 () Int)
(declare-fun call__DRAGON_.ite21 () Int)
(declare-fun call__DRAGON_.ite47 () Int)
(declare-fun call__DRAGON_.ite14 () Int)
(declare-fun call__DRAGON_.ite39 () Int)
(declare-fun call__DRAGON_.ite43 () Int)
(declare-fun call_Sofar.flby () Bool)
(declare-fun call__DRAGON_.mem_init () Int)
(declare-fun param_e07 () Bool)
(declare-fun call__DRAGON_.ite29 () Int)
(declare-fun call__DRAGON_.ite61 () Int)
(declare-fun call__DRAGON_.ite13 () Int)
(declare-fun dirty () Int)
(declare-fun call__DRAGON_.ite41 () Int)
(declare-fun param_e02 () Bool)
(declare-fun erreur () Bool)
(declare-fun call__DRAGON_.ite28 () Int)
(declare-fun param_e04 () Bool)
(declare-fun call__DRAGON_.ite31 () Int)
(declare-fun call__DRAGON_.ite27 () Int)
(declare-fun param_e10 () Bool)
(declare-fun call__DRAGON_.flby2 () Int)
(declare-fun call__DRAGON_.ite2 () Int)
(declare-fun call__DRAGON_.ite40 () Int)
(declare-fun call__DRAGON_.ite9 () Int)
(declare-fun call__DRAGON_.ite25 () Int)
(declare-fun call__DRAGON_.ite54 () Int)
(declare-fun call__DRAGON_.ite37 () Int)
(declare-fun call__DRAGON_.flby5 () Int)
(declare-fun call__DRAGON_.dirty () Int)
(declare-fun call__DRAGON_.g08 () Bool)
(declare-fun call__DRAGON_.ite60 () Int)
(declare-fun param_e11 () Bool)
(declare-fun call__DRAGON_.ite32 () Int)
(declare-fun call__DRAGON_.ite50 () Int)
(declare-fun call__DRAGON_.ite20 () Int)
(declare-fun call__DRAGON_.ite52 () Int)
(declare-fun param_e05 () Bool)
(declare-fun shared_dirty () Int)
(declare-fun call__DRAGON_.ite35 () Int)
(declare-fun call__DRAGON_.ite24 () Int)
(declare-fun call__DRAGON_.ite11 () Int)
(declare-fun call__DRAGON_.ite23 () Int)
(declare-fun param_e12 () Bool)
(declare-fun shared () Int)
(declare-fun call__DRAGON_.ite33 () Int)
(declare-fun call__DRAGON_.invalid () Int)
(declare-fun call__DRAGON_.ite49 () Int)
(declare-fun param_e01 () Bool)
(declare-fun call__DRAGON_.ite () Bool)
(declare-fun _OK_ () Bool)
(declare-fun call__DRAGON_.ite51 () Int)
(declare-fun call__DRAGON_.ite42 () Int)
(declare-fun param_init_invalid () Int)
(declare-fun call__DRAGON_.ite34 () Int)
(declare-fun param_e09 () Bool)
(declare-fun call__DRAGON_.ite48 () Int)
(declare-fun exclusive () Int)
(declare-fun call__DRAGON_.ite18 () Int)
(define-fun .def_1727 () Bool (= call_Sofar.flby call_Sofar.Sofar))
(define-fun .def_1536 () Bool (not param_e02))
(define-fun .def_1517 () Bool (not param_e01))
(define-fun .def_1625 () Bool (and .def_1517 .def_1536))
(define-fun .def_1576 () Bool (not param_e03))
(define-fun .def_1626 () Bool (and .def_1576 .def_1625))
(define-fun .def_1592 () Bool (not param_e04))
(define-fun .def_1627 () Bool (and .def_1592 .def_1626))
(define-fun .def_1381 () Bool (not param_e05))
(define-fun .def_1628 () Bool (and .def_1381 .def_1627))
(define-fun .def_1365 () Bool (not param_e06))
(define-fun .def_1629 () Bool (and .def_1365 .def_1628))
(define-fun .def_1401 () Bool (not param_e07))
(define-fun .def_1630 () Bool (and .def_1401 .def_1629))
(define-fun .def_1419 () Bool (not param_e08))
(define-fun .def_1631 () Bool (and .def_1419 .def_1630))
(define-fun .def_1261 () Bool (not param_e09))
(define-fun .def_1632 () Bool (and .def_1261 .def_1631))
(define-fun .def_1267 () Bool (not param_e10))
(define-fun .def_1633 () Bool (and .def_1267 .def_1632))
(define-fun .def_1274 () Bool (not param_e11))
(define-fun .def_1634 () Bool (and .def_1274 .def_1633))
(define-fun .def_1281 () Bool (not param_e12))
(define-fun .def_1712 () Bool (and .def_1281 .def_1634))
(define-fun .def_1701 () Bool (and param_e01 .def_1536))
(define-fun .def_1702 () Bool (and .def_1576 .def_1701))
(define-fun .def_1703 () Bool (and .def_1592 .def_1702))
(define-fun .def_1704 () Bool (and .def_1381 .def_1703))
(define-fun .def_1705 () Bool (and .def_1365 .def_1704))
(define-fun .def_1706 () Bool (and .def_1401 .def_1705))
(define-fun .def_1707 () Bool (and .def_1419 .def_1706))
(define-fun .def_1708 () Bool (and .def_1261 .def_1707))
(define-fun .def_1709 () Bool (and .def_1267 .def_1708))
(define-fun .def_1710 () Bool (and .def_1274 .def_1709))
(define-fun .def_1711 () Bool (and .def_1281 .def_1710))
(define-fun .def_1713 () Bool (or .def_1711 .def_1712))
(define-fun .def_1690 () Bool (and .def_1517 param_e02))
(define-fun .def_1691 () Bool (and .def_1576 .def_1690))
(define-fun .def_1692 () Bool (and .def_1592 .def_1691))
(define-fun .def_1693 () Bool (and .def_1381 .def_1692))
(define-fun .def_1694 () Bool (and .def_1365 .def_1693))
(define-fun .def_1695 () Bool (and .def_1401 .def_1694))
(define-fun .def_1696 () Bool (and .def_1419 .def_1695))
(define-fun .def_1697 () Bool (and .def_1261 .def_1696))
(define-fun .def_1698 () Bool (and .def_1267 .def_1697))
(define-fun .def_1699 () Bool (and .def_1274 .def_1698))
(define-fun .def_1700 () Bool (and .def_1281 .def_1699))
(define-fun .def_1714 () Bool (or .def_1700 .def_1713))
(define-fun .def_1680 () Bool (and param_e03 .def_1625))
(define-fun .def_1681 () Bool (and .def_1592 .def_1680))
(define-fun .def_1682 () Bool (and .def_1381 .def_1681))
(define-fun .def_1683 () Bool (and .def_1365 .def_1682))
(define-fun .def_1684 () Bool (and .def_1401 .def_1683))
(define-fun .def_1685 () Bool (and .def_1419 .def_1684))
(define-fun .def_1686 () Bool (and .def_1261 .def_1685))
(define-fun .def_1687 () Bool (and .def_1267 .def_1686))
(define-fun .def_1688 () Bool (and .def_1274 .def_1687))
(define-fun .def_1689 () Bool (and .def_1281 .def_1688))
(define-fun .def_1715 () Bool (or .def_1689 .def_1714))
(define-fun .def_1671 () Bool (and param_e04 .def_1626))
(define-fun .def_1672 () Bool (and .def_1381 .def_1671))
(define-fun .def_1673 () Bool (and .def_1365 .def_1672))
(define-fun .def_1674 () Bool (and .def_1401 .def_1673))
(define-fun .def_1675 () Bool (and .def_1419 .def_1674))
(define-fun .def_1676 () Bool (and .def_1261 .def_1675))
(define-fun .def_1677 () Bool (and .def_1267 .def_1676))
(define-fun .def_1678 () Bool (and .def_1274 .def_1677))
(define-fun .def_1679 () Bool (and .def_1281 .def_1678))
(define-fun .def_1716 () Bool (or .def_1679 .def_1715))
(define-fun .def_1663 () Bool (and param_e05 .def_1627))
(define-fun .def_1664 () Bool (and .def_1365 .def_1663))
(define-fun .def_1665 () Bool (and .def_1401 .def_1664))
(define-fun .def_1666 () Bool (and .def_1419 .def_1665))
(define-fun .def_1667 () Bool (and .def_1261 .def_1666))
(define-fun .def_1668 () Bool (and .def_1267 .def_1667))
(define-fun .def_1669 () Bool (and .def_1274 .def_1668))
(define-fun .def_1670 () Bool (and .def_1281 .def_1669))
(define-fun .def_1717 () Bool (or .def_1670 .def_1716))
(define-fun .def_1656 () Bool (and param_e06 .def_1628))
(define-fun .def_1657 () Bool (and .def_1401 .def_1656))
(define-fun .def_1658 () Bool (and .def_1419 .def_1657))
(define-fun .def_1659 () Bool (and .def_1261 .def_1658))
(define-fun .def_1660 () Bool (and .def_1267 .def_1659))
(define-fun .def_1661 () Bool (and .def_1274 .def_1660))
(define-fun .def_1662 () Bool (and .def_1281 .def_1661))
(define-fun .def_1718 () Bool (or .def_1662 .def_1717))
(define-fun .def_1650 () Bool (and param_e07 .def_1629))
(define-fun .def_1651 () Bool (and .def_1419 .def_1650))
(define-fun .def_1652 () Bool (and .def_1261 .def_1651))
(define-fun .def_1653 () Bool (and .def_1267 .def_1652))
(define-fun .def_1654 () Bool (and .def_1274 .def_1653))
(define-fun .def_1655 () Bool (and .def_1281 .def_1654))
(define-fun .def_1719 () Bool (or .def_1655 .def_1718))
(define-fun .def_1645 () Bool (and param_e08 .def_1630))
(define-fun .def_1646 () Bool (and .def_1261 .def_1645))
(define-fun .def_1647 () Bool (and .def_1267 .def_1646))
(define-fun .def_1648 () Bool (and .def_1274 .def_1647))
(define-fun .def_1649 () Bool (and .def_1281 .def_1648))
(define-fun .def_1720 () Bool (or .def_1649 .def_1719))
(define-fun .def_1641 () Bool (and param_e09 .def_1631))
(define-fun .def_1642 () Bool (and .def_1267 .def_1641))
(define-fun .def_1643 () Bool (and .def_1274 .def_1642))
(define-fun .def_1644 () Bool (and .def_1281 .def_1643))
(define-fun .def_1721 () Bool (or .def_1644 .def_1720))
(define-fun .def_1638 () Bool (and param_e10 .def_1632))
(define-fun .def_1639 () Bool (and .def_1274 .def_1638))
(define-fun .def_1640 () Bool (and .def_1281 .def_1639))
(define-fun .def_1722 () Bool (or .def_1640 .def_1721))
(define-fun .def_1636 () Bool (and param_e11 .def_1633))
(define-fun .def_1637 () Bool (and .def_1281 .def_1636))
(define-fun .def_1723 () Bool (or .def_1637 .def_1722))
(define-fun .def_1635 () Bool (and param_e12 .def_1634))
(define-fun .def_1724 () Bool (or .def_1635 .def_1723))
(define-fun .def_1725 () Bool (= call_excludes12.excludes .def_1724))
(define-fun .def_1623 () Bool (= call__DRAGON_.mem_init call__DRAGON_.flby))
(define-fun .def_1621 () Bool (= call__DRAGON_.erreur call__DRAGON_.ite))
(define-fun .def_1619 () Bool (= call__DRAGON_.flby6 call__DRAGON_.invalid))
(define-fun .def_1617 () Bool (= call__DRAGON_.flby5 call__DRAGON_.dirty))
(define-fun .def_1615 () Bool (= call__DRAGON_.flby4 call__DRAGON_.shared_dirty))
(define-fun .def_1613 () Bool (= call__DRAGON_.flby3 call__DRAGON_.shared))
(define-fun .def_1610 () Bool (= call__DRAGON_.flby2 call__DRAGON_.exclusive))
(define-fun .def_1605 () Bool (<= 2 call__DRAGON_.exclusive))
(define-fun .def_1607 () Bool (not .def_1605))
(define-fun .def_1608 () Bool (or call__DRAGON_.ite .def_1607))
(define-fun .def_1604 () Bool (not call__DRAGON_.ite))
(define-fun .def_1606 () Bool (or .def_1604 .def_1605))
(define-fun .def_1609 () Bool (and .def_1606 .def_1608))
(define-fun .def_1611 () Bool (and .def_1609 .def_1610))
(define-fun .def_1599 () Bool (= call__DRAGON_.ite42 call__DRAGON_.ite43))
(define-fun .def_1600 () Bool (or param_e04 .def_1599))
(define-fun .def_1596 () Bool (= call__DRAGON_.ite43 call__DRAGON_.ite34))
(define-fun .def_1597 () Bool (or .def_1592 .def_1596))
(define-fun .def_1591 () Bool (= call__DRAGON_.ite23 call__DRAGON_.ite30))
(define-fun .def_1593 () Bool (or .def_1591 .def_1592))
(define-fun .def_1588 () Bool (= call__DRAGON_.ite29 call__DRAGON_.ite30))
(define-fun .def_1590 () Bool (or .def_1588 param_e04))
(define-fun .def_1594 () Bool (and .def_1590 .def_1593))
(define-fun .def_1598 () Bool (and .def_1594 .def_1597))
(define-fun .def_1601 () Bool (and .def_1598 .def_1600))
(define-fun .def_1584 () Bool (= call__DRAGON_.ite44 call__DRAGON_.ite43))
(define-fun .def_1585 () Bool (or param_e03 .def_1584))
(define-fun .def_1580 () Bool (= call__DRAGON_.ite44 call__DRAGON_.ite33))
(define-fun .def_1581 () Bool (or .def_1576 .def_1580))
(define-fun .def_1575 () Bool (= call__DRAGON_.ite9 call__DRAGON_.ite4))
(define-fun .def_1577 () Bool (or .def_1575 .def_1576))
(define-fun .def_1571 () Bool (= call__DRAGON_.ite8 call__DRAGON_.ite9))
(define-fun .def_1573 () Bool (or .def_1571 param_e03))
(define-fun .def_1578 () Bool (and .def_1573 .def_1577))
(define-fun .def_1582 () Bool (and .def_1578 .def_1581))
(define-fun .def_1586 () Bool (and .def_1582 .def_1585))
(define-fun .def_1567 () Bool (= call__DRAGON_.ite31 call__DRAGON_.ite30))
(define-fun .def_1568 () Bool (or param_e02 .def_1567))
(define-fun .def_1563 () Bool (= call__DRAGON_.ite22 call__DRAGON_.ite31))
(define-fun .def_1564 () Bool (or .def_1536 .def_1563))
(define-fun .def_1558 () Bool (= call__DRAGON_.ite20 call__DRAGON_.ite21))
(define-fun .def_1559 () Bool (or param_e02 .def_1558))
(define-fun .def_1555 () Bool (= call__DRAGON_.ite12 call__DRAGON_.ite21))
(define-fun .def_1556 () Bool (or .def_1536 .def_1555))
(define-fun .def_1550 () Bool (= call__DRAGON_.ite10 call__DRAGON_.ite9))
(define-fun .def_1551 () Bool (or param_e02 .def_1550))
(define-fun .def_1546 () Bool (= call__DRAGON_.ite3 call__DRAGON_.ite10))
(define-fun .def_1547 () Bool (or .def_1536 .def_1546))
(define-fun .def_1543 () Bool (= call__DRAGON_.ite59 call__DRAGON_.ite60))
(define-fun .def_1544 () Bool (or param_e02 .def_1543))
(define-fun .def_1540 () Bool (= call__DRAGON_.ite60 call__DRAGON_.ite47))
(define-fun .def_1541 () Bool (or .def_1536 .def_1540))
(define-fun .def_1535 () Bool (= call__DRAGON_.ite32 call__DRAGON_.ite45))
(define-fun .def_1537 () Bool (or .def_1535 .def_1536))
(define-fun .def_1532 () Bool (= call__DRAGON_.ite45 call__DRAGON_.ite44))
(define-fun .def_1534 () Bool (or .def_1532 param_e02))
(define-fun .def_1538 () Bool (and .def_1534 .def_1537))
(define-fun .def_1542 () Bool (and .def_1538 .def_1541))
(define-fun .def_1545 () Bool (and .def_1542 .def_1544))
(define-fun .def_1548 () Bool (and .def_1545 .def_1547))
(define-fun .def_1552 () Bool (and .def_1548 .def_1551))
(define-fun .def_1557 () Bool (and .def_1552 .def_1556))
(define-fun .def_1560 () Bool (and .def_1557 .def_1559))
(define-fun .def_1565 () Bool (and .def_1560 .def_1564))
(define-fun .def_1569 () Bool (and .def_1565 .def_1568))
(define-fun .def_1526 () Bool (= call__DRAGON_.ite11 call__DRAGON_.ite10))
(define-fun .def_1527 () Bool (or param_e01 .def_1526))
(define-fun .def_1522 () Bool (= call__DRAGON_.ite2 call__DRAGON_.ite11))
(define-fun .def_1523 () Bool (or .def_1517 .def_1522))
(define-fun .def_1516 () Bool (= call__DRAGON_.ite61 call__DRAGON_.ite46))
(define-fun .def_1518 () Bool (or .def_1516 .def_1517))
(define-fun .def_1512 () Bool (= call__DRAGON_.ite61 call__DRAGON_.ite60))
(define-fun .def_1514 () Bool (or .def_1512 param_e01))
(define-fun .def_1519 () Bool (and .def_1514 .def_1518))
(define-fun .def_1524 () Bool (and .def_1519 .def_1523))
(define-fun .def_1528 () Bool (and .def_1524 .def_1527))
(define-fun .def_1506 () Bool (= call__DRAGON_.ite55 call__DRAGON_.ite52))
(define-fun .def_1507 () Bool (or .def_1274 .def_1506))
(define-fun .def_1503 () Bool (= call__DRAGON_.ite54 call__DRAGON_.ite55))
(define-fun .def_1504 () Bool (or param_e11 .def_1503))
(define-fun .def_1508 () Bool (and .def_1504 .def_1507))
(define-fun .def_1499 () Bool (= call__DRAGON_.ite56 call__DRAGON_.ite51))
(define-fun .def_1500 () Bool (or .def_1267 .def_1499))
(define-fun .def_1496 () Bool (= call__DRAGON_.ite56 call__DRAGON_.ite55))
(define-fun .def_1497 () Bool (or param_e10 .def_1496))
(define-fun .def_1501 () Bool (and .def_1497 .def_1500))
(define-fun .def_1493 () Bool (= env call_Sofar.Sofar))
(define-fun .def_1488 () Bool (= call__DRAGON_.ite57 call__DRAGON_.ite50))
(define-fun .def_1489 () Bool (or .def_1261 .def_1488))
(define-fun .def_1485 () Bool (= call__DRAGON_.ite57 call__DRAGON_.ite56))
(define-fun .def_1486 () Bool (or param_e09 .def_1485))
(define-fun .def_1490 () Bool (and .def_1486 .def_1489))
(define-fun .def_1482 () Bool (= erreur call__DRAGON_.erreur))
(define-fun .def_1478 () Bool (= invalid call__DRAGON_.invalid))
(define-fun .def_1474 () Bool (= dirty call__DRAGON_.dirty))
(define-fun .def_1471 () Bool (= shared_dirty call__DRAGON_.shared_dirty))
(define-fun .def_1467 () Bool (= shared call__DRAGON_.shared))
(define-fun .def_1464 () Bool (= exclusive call__DRAGON_.exclusive))
(define-fun .def_1456 () Bool (<= 1 shared))
(define-fun .def_1457 () Bool (not .def_1456))
(define-fun .def_1453 () Bool (<= 1 dirty))
(define-fun .def_1454 () Bool (not .def_1453))
(define-fun .def_1458 () Bool (or .def_1454 .def_1457))
(define-fun .def_1451 () Bool (not env))
(define-fun .def_1459 () Bool (or .def_1451 .def_1458))
(define-fun .def_1460 () Bool (= _OK_ .def_1459))
(define-fun .def_1445 () Bool (= call__DRAGON_.ite39 call__DRAGON_.ite40))
(define-fun .def_1446 () Bool (or param_e08 .def_1445))
(define-fun .def_1442 () Bool (= call__DRAGON_.ite37 call__DRAGON_.ite40))
(define-fun .def_1443 () Bool (or .def_1419 .def_1442))
(define-fun .def_1439 () Bool (= call__DRAGON_.ite27 call__DRAGON_.ite28))
(define-fun .def_1440 () Bool (or param_e08 .def_1439))
(define-fun .def_1436 () Bool (= call__DRAGON_.ite25 call__DRAGON_.ite28))
(define-fun .def_1437 () Bool (or .def_1419 .def_1436))
(define-fun .def_1433 () Bool (= call__DRAGON_.ite17 call__DRAGON_.ite18))
(define-fun .def_1434 () Bool (or param_e08 .def_1433))
(define-fun .def_1430 () Bool (= call__DRAGON_.ite18 call__DRAGON_.ite15))
(define-fun .def_1431 () Bool (or .def_1419 .def_1430))
(define-fun .def_1426 () Bool (= call__DRAGON_.ite7 call__DRAGON_.ite8))
(define-fun .def_1427 () Bool (or param_e08 .def_1426))
(define-fun .def_1423 () Bool (= call__DRAGON_.ite5 call__DRAGON_.ite8))
(define-fun .def_1424 () Bool (or .def_1419 .def_1423))
(define-fun .def_1418 () Bool (= call__DRAGON_.ite58 call__DRAGON_.ite49))
(define-fun .def_1420 () Bool (or .def_1418 .def_1419))
(define-fun .def_1414 () Bool (= call__DRAGON_.ite58 call__DRAGON_.ite57))
(define-fun .def_1416 () Bool (or .def_1414 param_e08))
(define-fun .def_1421 () Bool (and .def_1416 .def_1420))
(define-fun .def_1425 () Bool (and .def_1421 .def_1424))
(define-fun .def_1428 () Bool (and .def_1425 .def_1427))
(define-fun .def_1432 () Bool (and .def_1428 .def_1431))
(define-fun .def_1435 () Bool (and .def_1432 .def_1434))
(define-fun .def_1438 () Bool (and .def_1435 .def_1437))
(define-fun .def_1441 () Bool (and .def_1438 .def_1440))
(define-fun .def_1444 () Bool (and .def_1441 .def_1443))
(define-fun .def_1447 () Bool (and .def_1444 .def_1446))
(define-fun .def_1409 () Bool (= call__DRAGON_.ite41 call__DRAGON_.ite40))
(define-fun .def_1410 () Bool (or param_e07 .def_1409))
(define-fun .def_1405 () Bool (= call__DRAGON_.ite41 call__DRAGON_.ite36))
(define-fun .def_1406 () Bool (or .def_1401 .def_1405))
(define-fun .def_1400 () Bool (= call__DRAGON_.ite59 call__DRAGON_.ite48))
(define-fun .def_1402 () Bool (or .def_1400 .def_1401))
(define-fun .def_1396 () Bool (= call__DRAGON_.ite58 call__DRAGON_.ite59))
(define-fun .def_1398 () Bool (or .def_1396 param_e07))
(define-fun .def_1403 () Bool (and .def_1398 .def_1402))
(define-fun .def_1407 () Bool (and .def_1403 .def_1406))
(define-fun .def_1411 () Bool (and .def_1407 .def_1410))
(define-fun .def_1390 () Bool (= call__DRAGON_.ite42 call__DRAGON_.ite41))
(define-fun .def_1391 () Bool (or param_e05 .def_1390))
(define-fun .def_1386 () Bool (= call__DRAGON_.ite35 call__DRAGON_.ite42))
(define-fun .def_1387 () Bool (or .def_1381 .def_1386))
(define-fun .def_1380 () Bool (= call__DRAGON_.ite13 call__DRAGON_.ite20))
(define-fun .def_1382 () Bool (or .def_1380 .def_1381))
(define-fun .def_1377 () Bool (= call__DRAGON_.ite19 call__DRAGON_.ite20))
(define-fun .def_1379 () Bool (or .def_1377 param_e05))
(define-fun .def_1383 () Bool (and .def_1379 .def_1382))
(define-fun .def_1388 () Bool (and .def_1383 .def_1387))
(define-fun .def_1392 () Bool (and .def_1388 .def_1391))
(define-fun .def_1373 () Bool (= call__DRAGON_.ite29 call__DRAGON_.ite28))
(define-fun .def_1374 () Bool (or param_e06 .def_1373))
(define-fun .def_1369 () Bool (= call__DRAGON_.ite24 call__DRAGON_.ite29))
(define-fun .def_1370 () Bool (or .def_1365 .def_1369))
(define-fun .def_1364 () Bool (= call__DRAGON_.ite19 call__DRAGON_.ite14))
(define-fun .def_1366 () Bool (or .def_1364 .def_1365))
(define-fun .def_1360 () Bool (= call__DRAGON_.ite19 call__DRAGON_.ite18))
(define-fun .def_1362 () Bool (or .def_1360 param_e06))
(define-fun .def_1367 () Bool (and .def_1362 .def_1366))
(define-fun .def_1371 () Bool (and .def_1367 .def_1370))
(define-fun .def_1375 () Bool (and .def_1371 .def_1374))
(define-fun .def_1393 () Bool (and .def_1375 .def_1392))
(define-fun .def_1412 () Bool (and .def_1393 .def_1411))
(define-fun .def_1448 () Bool (and .def_1412 .def_1447))
(define-fun .def_1461 () Bool (and .def_1448 .def_1460))
(define-fun .def_1465 () Bool (and .def_1461 .def_1464))
(define-fun .def_1468 () Bool (and .def_1465 .def_1467))
(define-fun .def_1472 () Bool (and .def_1468 .def_1471))
(define-fun .def_1475 () Bool (and .def_1472 .def_1474))
(define-fun .def_1479 () Bool (and .def_1475 .def_1478))
(define-fun .def_1483 () Bool (and .def_1479 .def_1482))
(define-fun .def_1491 () Bool (and .def_1483 .def_1490))
(define-fun .def_1494 () Bool (and .def_1491 .def_1493))
(define-fun .def_1502 () Bool (and .def_1494 .def_1501))
(define-fun .def_1509 () Bool (and .def_1502 .def_1508))
(define-fun .def_1529 () Bool (and .def_1509 .def_1528))
(define-fun .def_1570 () Bool (and .def_1529 .def_1569))
(define-fun .def_1587 () Bool (and .def_1570 .def_1586))
(define-fun .def_1602 () Bool (and .def_1587 .def_1601))
(define-fun .def_1612 () Bool (and .def_1602 .def_1611))
(define-fun .def_1614 () Bool (and .def_1612 .def_1613))
(define-fun .def_1616 () Bool (and .def_1614 .def_1615))
(define-fun .def_1618 () Bool (and .def_1616 .def_1617))
(define-fun .def_1620 () Bool (and .def_1618 .def_1619))
(define-fun .def_1622 () Bool (and .def_1620 .def_1621))
(define-fun .def_1624 () Bool (and .def_1622 .def_1623))
(define-fun .def_1726 () Bool (and .def_1624 .def_1725))
(define-fun .def_1728 () Bool (and .def_1726 .def_1727))
(define-fun .def_1351 () Bool (<= param_init_invalid 0))
(define-fun .def_1352 () Bool (not .def_1351))
(define-fun .def_1354 () Bool (and .def_1352 call_excludes12.excludes))
(define-fun .def_1356 () Bool (= .def_1354 call_Sofar.flby))
(define-fun .def_1349 () Bool (= call__DRAGON_.flby4 0))
(define-fun .def_1346 () Bool (= call__DRAGON_.flby3 0))
(define-fun .def_1343 () Bool (= call__DRAGON_.flby2 0))
(define-fun .def_1340 () Bool (= param_init_invalid call__DRAGON_.flby))
(define-fun .def_1334 () Bool (= call__DRAGON_.ite37 0))
(define-fun .def_1327 () Bool (not call__DRAGON_.g08))
(define-fun .def_1335 () Bool (or .def_1327 .def_1334))
(define-fun .def_1330 () Bool (= call__DRAGON_.ite5 0))
(define-fun .def_1331 () Bool (or .def_1327 .def_1330))
(define-fun .def_1325 () Bool (= call__DRAGON_.ite25 1))
(define-fun .def_1328 () Bool (or .def_1325 .def_1327))
(define-fun .def_1332 () Bool (and .def_1328 .def_1331))
(define-fun .def_1336 () Bool (and .def_1332 .def_1335))
(define-fun .def_1321 () Bool (= call__DRAGON_.ite24 1))
(define-fun .def_1319 () Bool (not call__DRAGON_.g06))
(define-fun .def_1322 () Bool (or .def_1319 .def_1321))
(define-fun .def_1315 () Bool (= call__DRAGON_.ite13 0))
(define-fun .def_1313 () Bool (not call__DRAGON_.g05))
(define-fun .def_1316 () Bool (or .def_1313 .def_1315))
(define-fun .def_1309 () Bool (= call__DRAGON_.ite23 0))
(define-fun .def_1307 () Bool (not call__DRAGON_.g04))
(define-fun .def_1310 () Bool (or .def_1307 .def_1309))
(define-fun .def_1302 () Bool (= call__DRAGON_.ite3 0))
(define-fun .def_1299 () Bool (not call__DRAGON_.g02))
(define-fun .def_1303 () Bool (or .def_1299 .def_1302))
(define-fun .def_1297 () Bool (= call__DRAGON_.ite32 0))
(define-fun .def_1300 () Bool (or .def_1297 .def_1299))
(define-fun .def_1304 () Bool (and .def_1300 .def_1303))
(define-fun .def_1294 () Bool (= call__DRAGON_.flby6 call__DRAGON_.mem_init))
(define-fun .def_1290 () Bool (= call__DRAGON_.flby5 0))
(define-fun .def_1285 () Bool (= call__DRAGON_.ite53 call__DRAGON_.ite54))
(define-fun .def_1286 () Bool (or .def_1281 .def_1285))
(define-fun .def_1279 () Bool (= call__DRAGON_.ite6 call__DRAGON_.ite7))
(define-fun .def_1282 () Bool (or .def_1279 .def_1281))
(define-fun .def_1287 () Bool (and .def_1282 .def_1286))
(define-fun .def_1272 () Bool (= call__DRAGON_.ite26 call__DRAGON_.ite27))
(define-fun .def_1275 () Bool (or .def_1272 .def_1274))
(define-fun .def_1265 () Bool (= call__DRAGON_.ite16 call__DRAGON_.ite17))
(define-fun .def_1268 () Bool (or .def_1265 .def_1267))
(define-fun .def_1259 () Bool (= call__DRAGON_.ite38 call__DRAGON_.ite39))
(define-fun .def_1262 () Bool (or .def_1259 .def_1261))
(define-fun .def_1269 () Bool (and .def_1262 .def_1268))
(define-fun .def_1276 () Bool (and .def_1269 .def_1275))
(define-fun .def_1288 () Bool (and .def_1276 .def_1287))
(define-fun .def_1291 () Bool (and .def_1288 .def_1290))
(define-fun .def_1295 () Bool (and .def_1291 .def_1294))
(define-fun .def_1305 () Bool (and .def_1295 .def_1304))
(define-fun .def_1311 () Bool (and .def_1305 .def_1310))
(define-fun .def_1317 () Bool (and .def_1311 .def_1316))
(define-fun .def_1323 () Bool (and .def_1317 .def_1322))
(define-fun .def_1337 () Bool (and .def_1323 .def_1336))
(define-fun .def_1341 () Bool (and .def_1337 .def_1340))
(define-fun .def_1344 () Bool (and .def_1341 .def_1343))
(define-fun .def_1347 () Bool (and .def_1344 .def_1346))
(define-fun .def_1350 () Bool (and .def_1347 .def_1349))
(define-fun .def_1357 () Bool (and .def_1350 .def_1356))
(define-fun .def_1729 () Bool (and .def_1357 .def_1728))
(assert .def_1729)
